%nproc=6
%mem=4GB

#PM7 opt(modredundant)

title: Et2NH_Fine_Scan - Flexible Scan

0,1
C     -0.33484921    -1.42388994    -2.02882766
C     -0.73965875    -1.11289338    -0.59462429
N      0.00000000     0.00000000     0.00000000
C     -0.25956631     1.30918536    -0.59803609
C     -1.69106320     1.79229821    -0.41315243
H     -0.83507364    -2.33699733    -2.36800991
H      0.74526426    -1.58474996    -2.10991597
H     -0.61808143    -0.61883808    -2.71350963
H     -0.53724336    -2.00078507     0.01596640
H     -1.82071185    -0.95154144    -0.53091874
H      0.99922506    -0.19629198    -0.06068930
H      0.40293975     2.03051923    -0.10516169
H      0.01164043     1.32338810    -1.65899970
H     -1.78145841     2.82924276    -0.75338249
H     -1.98716076     1.75927513     0.64059930
H     -2.40030177     1.19370983    -0.99259958
C      0.00000000     0.00000000     2.40000000
I      0.00000000     0.00000000     4.54000000
H      0.00000000     1.03000000     2.05000000
H      0.89000000    -0.51000000     2.05000000
H     -0.89000000    -0.51000000     2.05000000

3 17 S 20 -0.04
