%nproc=6
%mem=4GB

#PM7 opt(ts,calcall,noeig) freq

title: Et2NH_Fine_TS

0,1
C      4.22452100    -1.43456100    -0.15948600
C      2.79584000    -1.01395500    -0.48989100
N      2.18144800    -0.17044200     0.57987200
C      2.72803100     1.22472600     0.63041400
C      2.36581300     2.04782300    -0.60136600
H      4.62549000    -2.09796700    -0.94013700
H      4.29136100    -1.98826400     0.78479500
H      4.90940100    -0.58081600    -0.09571200
H      2.15078200    -1.91662900    -0.62029000
H      2.76088200    -0.46635000    -1.45843900
H      2.32218000    -0.62193600     1.49694300
H      2.31164700     1.71383600     1.54348500
H      3.83318500     1.19985200     0.75917800
H      2.77850000     3.06390400    -0.52054100
H      1.27852100     2.16286600    -0.72535500
H      2.76073300     1.61996200    -1.53001900
C      0.31932200    -0.13744100     0.32335400
I     -2.35017400    -0.08687100    -0.03592700
H      0.13661300     0.64837800     1.04796000
H      0.16831400    -1.17081800     0.61574900
H      0.36033900     0.11169000    -0.73073100

