%nproc=6
%mem=4GB

#PM7 IRC(CalcFC, MaxPoints=20, StepSize=5)

title: Et2NH_IRC

0,1
C      4.21040600    -1.44310500    -0.15340800
C      2.78750100    -1.00959000    -0.49364100
N      2.16870800    -0.16751500     0.57457600
C      2.71832300     1.22635800     0.62818300
C      2.34691800     2.05626800    -0.59672900
H      4.61483900    -2.10086300    -0.93671700
H      4.26344400    -2.00656400     0.78591300
H      4.89957900    -0.59430500    -0.07342600
H      2.13725400    -1.90676200    -0.63434400
H      2.76524700    -0.45690300    -1.45944600
H      2.30938900    -0.61987300     1.49119700
H      2.30965700     1.71145500     1.54662200
H      3.82435900     1.20033200     0.74785000
H      2.76833300     3.06869300    -0.51814800
H      1.25909300     2.17882900    -0.70643600
H      2.72640600     1.62750700    -1.53135700
C      0.29963100    -0.13601500     0.31756100
I     -2.33752300    -0.08839900    -0.03522800
H      0.13201300     0.64760100     1.04805300
H      0.16535400    -1.17206600     0.60836400
H      0.35612500     0.11718100    -0.73485000

