%nproc=6
%mem=4GB

#PM7 IRC(CalcFC, MaxPoints=20, StepSize=5)

title: EtNH2_IRC

0,1
C     -4.83106900    -0.29554000     0.00000000
C     -3.32589000    -0.53174700     0.00000000
N     -2.56314600     0.75557200     0.00000000
H     -5.17071300     0.25483600    -0.88599500
H     -5.37796500    -1.25065900     0.00000000
H     -5.17071200     0.25483500     0.88599600
H     -3.01795500    -1.12461300     0.89274100
H     -3.01795500    -1.12461200    -0.89274200
H     -2.78222800     1.31228600     0.82550900
H     -2.78222800     1.31228600    -0.82550900
C     -0.73524600     0.41474700     0.00000000
I      1.89689400    -0.06872700     0.00000000
H     -0.73594400    -0.13378000    -0.93633800
H     -0.73594500    -0.13378200     0.93633800
H     -0.44848100     1.46195000     0.00000100

