%nproc=6
%mem=4GB

#PM7 opt(modredundant)

title: EtNH2_Fine_Scan - Flexible Scan

0,1
C      0.74330519     0.00841237    -2.34105950
C      1.16157891     0.01314163    -0.88053350
N      0.00000000     0.00000000     0.00000000
H      0.13894571     0.88905423    -2.58328640
H      1.62739244     0.01841696    -2.98655761
H      0.15902672    -0.88567822    -2.58329026
H      1.78398195    -0.86232972    -0.66891527
H      1.76401760     0.90246815    -0.66891285
H     -0.57158726    -0.81992009    -0.20096529
H     -0.58999165     0.80677846    -0.20096628
C      0.00000000     0.00000000     2.40000000
I      0.00000000     0.00000000     4.54000000
H      0.00000000     1.03000000     2.05000000
H      0.89000000    -0.51000000     2.05000000
H     -0.89000000    -0.51000000     2.05000000

3 11 S 20 -0.04
