%nproc=6
%mem=4GB

#PM7 opt(ts,calcall,noeig) freq

title: EtNH2_Fine_TS

0,1
C     -4.85433000     0.30532500    -0.00007700
C     -3.34887400     0.53421300     0.00007600
N     -2.59671400    -0.76035900     0.00001100
H     -5.19839700    -0.24391800     0.88513700
H     -5.39650600     1.26375000     0.00183200
H     -5.19866200    -0.24058600    -0.88725900
H     -3.03691100     1.12544100    -0.89290300
H     -3.03705300     1.12525400     0.89321400
H     -2.81505500    -1.31549400    -0.82727500
H     -2.81522100    -1.31571800     0.82705900
C     -0.78713700    -0.42715700     0.00006800
I      1.91674800     0.06911700    -0.00000800
H     -0.75163800     0.12646300     0.93331600
H     -0.75133400     0.12529500    -0.93387800
H     -0.46781500    -1.46543900     0.00069400

