%nproc=6
%mem=4GB

#PM7 opt(modredundant)

title: Me2NH_Smart_Scan - Flexible Scan

0,1
C      1.31006061    -0.43618115    -0.46388728
N      0.00000000     0.00000000     0.00000000
C     -1.04406861    -0.90356748    -0.46388693
H      1.36452973    -0.45119538    -1.55735543
H      2.07519933     0.25557428    -0.09812195
H      1.55515185    -1.43145768    -0.07911188
H     -0.18619507     0.93782708    -0.35419440
H     -2.01543928    -0.55657630    -0.09812261
H     -1.08867000    -0.93825228    -1.55735510
H     -0.89035663    -1.91698594    -0.07911011
C      0.08000000     0.00000000     2.30000000
I      0.08000000     0.00000000     4.44000000
H      0.08000000     1.00000000     1.90000000
H      0.94000000    -0.50000000     1.90000000
H     -0.78000000    -0.50000000     1.90000000

2 11 S 14 -0.05
