%nproc=6
%mem=4GB

#PM7 IRC(CalcFC, MaxPoints=20, StepSize=5)

title: Me2NH_Smart_IRC

0,1
C      3.34109700     1.22660900     0.21882100
N      2.79072600     0.00000000    -0.41501500
C      3.34109700    -1.22660900     0.21882100
H      4.43834000     1.28944400     0.15048100
H      2.91406300     2.12352100    -0.26566700
H      3.06403200     1.26610200     1.28786400
H      2.99415700     0.00000000    -1.42465800
H      2.91406400    -2.12352100    -0.26566700
H      4.43834000    -1.28944300     0.15048100
H      3.06403200    -1.26610200     1.28786400
C      0.92816200     0.00000000    -0.22915100
I     -1.72717700     0.00000000     0.02633700
H      0.78825900     0.93633200    -0.75885100
H      0.93961000     0.00000000     0.85528800
H      0.78825900    -0.93633200    -0.75885200

