%nproc=6
%mem=4GB

#PM7 opt(ts,calcall,noeig) freq

title: Me2NH_Smart_TS

0,1
C      3.36863700    -1.22806100    -0.22228500
N      2.82829700     0.00000900     0.41652500
C      3.36887400     1.22795700    -0.22232500
H      4.46644700    -1.29332800    -0.16003000
H      2.94265300    -2.12534300     0.26370700
H      3.08609000    -1.26698400    -1.29043600
H      3.03245000    -0.00000200     1.42619200
H      2.94323500     2.12533100     0.26379500
H      4.46671000     1.29291500    -0.16023400
H      3.08613800     1.26701000    -1.29042600
C      0.98567600     0.00008700     0.23654800
I     -1.74968100     0.00000400    -0.02630900
H      0.80805300    -0.93274000     0.76199900
H      0.95594800    -0.00080700    -0.84796900
H      0.80814800     0.93379100     0.76046100

