%nproc=6
%mem=4GB

#PM7 IRC(CalcFC, MaxPoints=20, StepSize=5)

title: Me3N_IRC

0,1
C      3.24766800     0.73603200    -0.08330300
N      2.43277600    -0.20677400     0.72704600
C      2.52309000     0.13613900     2.17060100
C      2.87521500    -1.60703700     0.49659000
H      3.14556500     0.50051500    -1.15771300
H      4.31858500     0.70857000     0.17055800
H      2.88899300     1.77066900     0.06204500
H      2.15635300     1.16410200     2.34102600
H      1.88496800    -0.54316000     2.76356100
H      3.54850200     0.07100300     2.56601500
H      3.92274100    -1.78165100     0.78687100
H      2.24100900    -2.30573000     1.07092500
H      2.76896900    -1.86862200    -0.57136800
C      0.63457200    -0.05393600     0.18964500
I     -1.91032100     0.16236800    -0.57090800
H      0.55806600     0.99694400     0.44474800
H      0.27260800    -0.79884600     0.88919500
H      0.82794400    -0.33907300    -0.83825800

