%nproc=6
%mem=4GB

#PM7 opt(modredundant)

title: Me3N_Scan - Flexible Scan

0,1
C     -0.96945400     0.99207421    -0.46334528
N      0.00000000     0.00000000     0.00000000
C      1.34388887     0.34353433    -0.46334609
C     -0.37443487    -1.33560854    -0.46334671
H     -1.97013359     0.75889698    -0.08264321
H     -1.01996977     1.04377001    -1.55710351
H     -0.71326343     1.98710991    -0.08264059
H      1.64229351     1.32673591    -0.08264339
H      2.07751940    -0.37585204    -0.08264320
H      1.41391626     0.36143507    -1.55710321
H     -0.39394359    -1.40520441    -1.55710506
H      0.32783983    -2.08563417    -0.08264272
H     -1.36425772    -1.61125886    -0.08264633
C      0.00000000     0.00000000     3.00000000
I      0.00000000     0.00000000     5.20000000
H      0.00000000     1.03000000     2.65000000
H      0.89000000    -0.51000000     2.65000000
H     -0.89000000    -0.51000000     2.65000000

2 14 S 15 -0.10
