%nproc=6
%mem=4GB

#PM7 opt(ts,calcall,noeig) freq

title: Me3N_TS

0,1
C      2.99224400     0.98432600     1.00714900
N      2.51415000    -0.00001500     0.00002800
C      2.99247200    -1.36429800     0.34894000
C      2.99261000     0.38007800    -1.35586200
H      2.60833000     1.99066800     0.76409100
H      4.08954700     1.04409300     1.06825300
H      2.60835600     0.71840000     2.00767100
H      2.60831100    -1.65721300     1.34181600
H      2.60897200    -2.09778000    -0.38188000
H      4.08978200    -1.44685900     0.37044600
H      4.08995700     0.40295400    -1.43793200
H      2.60892500    -0.33351400    -2.10600300
H      2.60894200     1.37960800    -1.62575800
C      0.61415100    -0.00011000    -0.00029700
I     -1.97681200     0.00000400     0.00000600
H      0.56737700    -0.29206800     1.04291900
H      0.56725500    -0.75769200    -0.77462500
H      0.56738800     1.04931900    -0.26908900

