%nproc=6
%mem=4GB

#PM7 opt(ts,calcall,noeig) freq

title: Me3N_Ultimate

0,1
C     -1.26656911    -0.48923661     0.54331518
N      0.00000000     0.00000000     0.00000000
C      1.11774015    -0.78396317     0.52421506
C      0.17768727     1.41707708     0.31474051
H     -2.10829600     0.07006804     0.11983026
H     -1.31036125    -0.40401918     1.63526370
H     -1.42069378    -1.53988752     0.27304870
H      1.00712440    -1.83999253     0.25360206
H      2.06352661    -0.44561514     0.08640942
H      1.19818946    -0.71410242     1.61516706
H      0.20915439     1.60162874     1.39477848
H      1.10631908     1.79558794    -0.12688853
H     -0.63768683     2.01116650    -0.11291355
C      0.00000000     0.00000000     2.25000000
I      0.00000000     0.00000000     4.90000000
H      0.00000000     1.00000000     2.35000000
H      0.86000000    -0.50000000     2.35000000
H     -0.86000000    -0.50000000     2.35000000

