%nproc=6
%mem=4GB

#PM7 opt(modredundant)

title: MeNH2_Fine_Scan - Flexible Scan

0,1
C     -1.15073764     0.11484191    -0.87796321
N      0.00000000     0.00000000     0.00000000
H     -1.84900488    -0.70653171    -0.69479343
H     -0.83970688     0.08380719    -1.92604206
H     -1.67291193     1.05800764    -0.69478457
H      0.49446263    -0.86811763    -0.20145731
H      0.65627501     0.75327573    -0.20145704
C      0.00000000     0.00000000     2.40000000
I      0.00000000     0.00000000     4.60000000
H      0.00000000     1.03000000     2.05000000
H      0.89000000    -0.51000000     2.05000000
H     -0.89000000    -0.51000000     2.05000000

2 8 S 20 -0.04
