%nproc=6
%mem=4GB

#PM7 IRC(CalcFC, MaxPoints=20, StepSize=5)

title: MeNH2_IRC

0,1
C      3.79442800    -0.69592400    -0.00024100
N      3.09029600     0.61466200    -0.00028900
H      3.50493900    -1.28383500     0.89032500
H      4.89070500    -0.59095800    -0.00033400
H      3.50480000    -1.28397400    -0.89067100
H      3.32915100     1.16108200     0.82673300
H      3.32903900     1.16095900    -0.82742500
C      1.25461200     0.34179800    -0.00014700
I     -1.39535300    -0.04385000     0.00011600
H      1.23252800    -0.20752000    -0.93592800
H      1.00355800     1.39810800    -0.00002900
H      1.23268300    -0.20767700     0.93555200

