%nproc=6
%mem=4GB

#PM7 opt(ts,calcall,noeig) freq

title: MeNH2_Fine_TS

0,1
C     -3.81217100    -0.70131900     0.00000000
N     -3.11724100     0.61415900     0.00012600
H     -3.52010400    -1.28833200    -0.89080900
H     -4.90923800    -0.60180600     0.00013500
H     -3.51987000    -1.28864400     0.89052200
H     -3.35586100     1.15961200    -0.82814300
H     -3.35559100     1.15930900     0.82866500
C     -1.29658300     0.34807800    -0.00019800
I      1.40844600    -0.04360500     0.00001400
H     -1.24610200    -0.20360600     0.93369700
H     -1.02127500     1.39891100    -0.00063400
H     -1.24640600    -0.20403000    -0.93386700

