%nproc=6
%mem=4GB

#PM7 opt(ts,calcall,noeig) freq

title: NEt3_Fine_TS

0,1
C      1.89457900     0.86118800     2.07798500
C      2.74017800     0.05705500     1.09145400
N      2.06189500    -0.16123400    -0.23039500
C      2.40789000    -1.52870000    -0.76606100
C      1.76256300    -2.66137800     0.03018800
C      2.51288800     0.84462300    -1.25636600
C      2.29725500     2.29682600    -0.84011700
H      1.54730800     1.81596800     1.66629900
H      2.47771900     1.09446900     2.97941300
H      1.00479100     0.30927700     2.41229300
H      2.97821400    -0.92886000     1.55484100
H      3.72146800     0.55935500     0.93929300
H      3.51176500    -1.66302600    -0.79008900
H      2.05999100    -1.58809100    -1.82396500
H      0.67624100    -2.72069600    -0.13545600
H      1.91940500    -2.57237100     1.11156900
H      2.17892900    -3.63135800    -0.27548500
H      1.93642200     0.64625000    -2.19190200
H      3.58707000     0.68818000    -1.50335800
H      2.59041600     2.97378300    -1.65583500
H      2.89298700     2.57888700     0.03554500
H      1.24428600     2.51842900    -0.61523700
C      0.14678500    -0.06345800    -0.13452000
I     -2.48282000     0.04506400    -0.01728600
H      0.09283700    -0.74202500     0.70778200
H      0.02512400    -0.43966500    -1.14281100
H      0.13841900     1.00478200     0.04065700

