%nproc=6
%mem=4GB

#PM7 IRC(CalcFC, MaxPoints=20, StepSize=5)

title: NEt3_IRC

0,1
C     -1.89590100    -0.86089300     2.07893900
C     -2.74335100    -0.05806400     1.09305300
N     -2.06800800     0.16074800    -0.23030600
C     -2.41368100     1.52834300    -0.76586100
C     -1.76734200     2.66117700     0.02913800
C     -2.51776000    -0.84602300    -1.25597400
C     -2.29789400    -2.29774700    -0.84074600
H     -1.54786000    -1.81551200     1.66746000
H     -2.47808500    -1.09455300     2.98099900
H     -1.00643800    -0.30813300     2.41299700
H     -2.98203200     0.92790100     1.55619500
H     -3.72430500    -0.56160400     0.94211800
H     -3.51767100     1.66263700    -0.78860800
H     -2.06710200     1.58738300    -1.82433500
H     -0.68099600     2.72028000    -0.13705500
H     -1.92383700     2.57362800     1.11069500
H     -2.18337500     3.63118700    -0.27725700
H     -1.94351700    -0.64591300    -2.19264100
H     -3.59278200    -0.69177900    -1.50092500
H     -2.59240900    -2.97512600    -1.65572700
H     -2.89030100    -2.58152700     0.03665300
H     -1.24371900    -2.51778800    -0.61958800
C     -0.15656000     0.06402000    -0.13517900
I      2.48804900    -0.04450600    -0.01743100
H     -0.09423600     0.74306000     0.70616700
H     -0.02734000     0.43843000    -1.14318600
H     -0.13957800    -1.00385600     0.04179400

