%nproc=6
%mem=4GB

#PM7 opt(modredundant)

title: NEt3_Fine_Scan - Flexible Scan

0,1
C     -1.99149196     1.16014026     0.82716198
C     -1.22313441     0.71252914    -0.40889761
N      0.00000000     0.00000000     0.00000000
C      1.21925283     0.68689498    -0.46003711
C      1.44618233     2.01802080     0.25093760
C      0.00388158    -1.39942413    -0.46003541
C     -1.04211185    -2.25340863     0.25093906
H     -2.28725577     0.30570616     1.44469407
H     -2.90227451     1.69071008     0.53113601
H     -1.39411348     1.83887957     1.44468269
H     -1.00380269     1.59053264    -1.02869571
H     -1.87871632     0.08865328    -1.02868683
H      1.20201215     0.83722011    -1.54683032
H      2.09549791     0.06409758    -0.23931278
H      1.46675110     1.88391091     1.33772263
H      0.67293139     2.75312892     0.00930520
H      2.40947027     2.44189942    -0.05172053
H      0.97785552    -1.85445883    -0.23930984
H     -0.13538762    -1.45857746    -1.54682840
H     -0.93569118    -3.30043944    -0.05171523
H     -2.06298046    -1.94336603     0.00930309
H     -0.91530888    -2.20514767     1.33772419
C      0.00000000     0.00000000     2.40000000
I      0.00000000     0.00000000     4.54000000
H      0.00000000     1.03000000     2.05000000
H      0.89000000    -0.51000000     2.05000000
H     -0.89000000    -0.51000000     2.05000000

3 23 S 20 -0.04
