%nproc=2
%mem=2GB

#PM7 opt(ts,noeig,calcall)

title: NH3_TS_Final

0,1
N      3.59937300     0.00011000     0.00007800
H      3.93077700     0.95587900    -0.03279100
H      3.93149100    -0.44889900     0.84419800
H      3.93203700    -0.50602000    -0.81079500
C      1.79770800    -0.00025700    -0.00018700
I     -0.99407200     0.00001300     0.00001100
H      1.63651300     0.50555500    -0.94996600
H      1.63615100     0.56928600     0.91276400
H      1.63696200    -1.07572100     0.03656900

