%nproc=2
%mem=2GB

#PM7 IRC(calcall, maxpoints=15, stepsize=10)

title: NH3_IRC

0,1
N     -0.14528600     0.69610500     3.48535400
H     -0.00064100    -0.15927900     4.00442000
H      0.57564800     1.36331500     3.72434400
H     -1.05195000     1.08111800     3.71285800
C     -0.07053100     0.33793700     1.69203600
I      0.03989300    -0.19113700    -0.95701300
H     -0.89797700    -0.36661800     1.67821300
H      0.94590100    -0.04692500     1.69122600
H     -0.24510600     1.35830100     1.36092200

