%nproc=2
%mem=2GB

#PM7 opt(modredundant)

title: NH3_Preview - Flexible Scan

0,1
N      0.00000000     0.00000000     0.00000000
H      0.00000000     0.94000000    -0.38000000
H      0.81000000    -0.47000000    -0.38000000
H     -0.81000000    -0.47000000    -0.38000000
C      0.10000000     0.00000000     3.00000000
I      0.20000000     0.00000000     5.20000000
H      0.10000000     1.03000000     2.70000000
H      0.99000000    -0.51000000     2.70000000
H     -0.79000000    -0.51000000     2.70000000

1 5 S 15 -0.10
